
Gurobi 13.0.1 (linux64) logging started Sat Mar 21 22:08:11 2026

Set parameter LogFile to value "logs/50B_6F_robust_gamma_0d75_theta_0d05199999999999999_2026-03-21_22h07m57s.log"
Gurobi Optimizer version 13.0.1 build v13.0.1rc0 (linux64 - "Linux Mint 22")

CPU model: 12th Gen Intel(R) Core(TM) i7-12700, instruction set [SSE2|AVX|AVX2]
Thread count: 20 physical cores, 20 logical processors, using up to 20 threads

Non-default parameters:
TimeLimit  3600
SoftMemLimit  12

Optimize a model with 60351 rows, 780571 columns and 2406497 nonzeros (Max)
Model fingerprint: 0x91690bf4
Model has 735061 linear objective coefficients
Variable types: 15571 continuous, 765000 integer (765000 binary)
Coefficient statistics:
  Matrix range     [3e-05, 1e+05]
  Objective range  [1e+00, 3e+03]
  Bounds range     [1e+00, 1e+05]
  RHS range        [8e-03, 1e+05]

Presolve removed 31036 rows and 564142 columns
Presolve time: 1.39s
Presolved: 29315 rows, 216429 columns, 690965 nonzeros
Variable types: 7521 continuous, 208908 integer (208908 binary)
Found heuristic solution: objective -3.92159e+08
Found heuristic solution: objective -3.91453e+08
Deterministic concurrent LP optimizer: primal simplex, dual simplex, and barrier
Showing barrier log only...

Root barrier log...

Ordering time: 0.42s

Barrier statistics:
 AA' NZ     : 4.006e+05
 Factor NZ  : 3.152e+06 (roughly 120 MB of memory)
 Factor Ops : 6.047e+08 (less than 1 second per iteration)
 Threads    : 18

                  Objective                Residual
Iter       Primal          Dual         Primal    Dual     Compl     Time
   0  -4.95856880e+11  1.05070959e+09  6.85e+06 1.02e+03  6.74e+06     3s
   1  -6.22110774e+10  1.88924185e+09  8.60e+05 1.50e-11  8.64e+05     3s
   2  -2.40445407e+09  1.46802611e+09  3.20e+04 3.27e-11  3.54e+04     3s
   3  -1.04037562e+08  8.62463406e+08  2.15e+03 3.98e-11  3.77e+03     3s
   4   2.93069246e+07  4.23220101e+08  4.68e+02 2.82e-11  1.15e+03     3s
   5   5.12310030e+07  1.95496562e+08  1.97e+02 2.46e-11  4.17e+02     3s
   6   5.87130233e+07  1.47610299e+08  1.03e+02 2.86e-11  2.46e+02     3s
   7   6.53011419e+07  1.13460443e+08  2.30e+01 1.06e-10  1.18e+02     3s
   8   6.63612338e+07  7.89255369e+07  1.15e+01 3.13e-10  3.25e+01     3s
   9   6.67820654e+07  7.13895874e+07  7.04e+00 1.86e-10  1.21e+01     3s
  10   6.68290290e+07  7.06663797e+07  6.55e+00 2.22e-10  1.00e+01     3s
  11   6.73814010e+07  6.90800996e+07  1.01e+00 1.97e-10  3.92e+00     3s
  12   6.73984548e+07  6.90471651e+07  9.03e-01 2.62e-10  3.80e+00     3s
  13   6.74246997e+07  6.87809197e+07  7.59e-01 2.45e-10  3.10e+00     3s
  14   6.74686215e+07  6.84336474e+07  5.61e-01 2.46e-10  2.18e+00     3s
  15   6.75410899e+07  6.79798725e+07  3.17e-01 1.91e-10  9.84e-01     3s
  16   6.76519071e+07  6.77803686e+07  7.01e-02 1.82e-10  2.87e-01     3s
  17   6.76710940e+07  6.77669927e+07  3.30e-02 2.55e-10  2.14e-01     3s
  18   6.76786787e+07  6.77299684e+07  1.97e-02 2.10e-10  1.15e-01     3s
  19   6.76862214e+07  6.77135334e+07  8.22e-03 2.02e-10  6.10e-02     3s
  20   6.76888506e+07  6.77040361e+07  4.83e-03 1.99e-10  3.39e-02     3s
  21   6.76908183e+07  6.76997615e+07  2.71e-03 1.86e-10  2.00e-02     3s
  22   6.76918145e+07  6.76975674e+07  1.72e-03 1.85e-10  1.29e-02     4s
  23   6.76922725e+07  6.76968096e+07  1.00e-03 2.70e-10  1.01e-02     4s
  24   6.76926096e+07  6.76965323e+07  6.95e-04 2.53e-10  8.76e-03     4s
  25   6.76928723e+07  6.76958267e+07  4.55e-04 2.66e-10  6.60e-03     4s
  26   6.76931252e+07  6.76951460e+07  1.80e-04 2.61e-10  4.52e-03     4s
  27   6.76932290e+07  6.76945175e+07  8.85e-05 2.42e-10  2.88e-03     4s
  28   6.76932808e+07  6.76940667e+07  3.38e-05 2.03e-10  1.76e-03     4s
  29   6.76933037e+07  6.76936187e+07  2.25e-05 1.74e-10  7.04e-04     4s
  30   6.76933174e+07  6.76935560e+07  1.73e-05 2.09e-10  5.33e-04     4s
  31   6.76933432e+07  6.76934602e+07  7.78e-06 2.03e-10  2.61e-04     4s
  32   6.76933568e+07  6.76933981e+07  3.34e-06 1.91e-10  9.22e-05     4s
  33   6.76933656e+07  6.76933804e+07  9.52e-07 1.85e-10  3.30e-05     4s
  34   6.76933686e+07  6.76933758e+07  2.30e-07 1.79e-10  1.61e-05     4s
  35   6.76933692e+07  6.76933727e+07  8.78e-08 2.01e-10  7.92e-06     4s
  36   6.76933695e+07  6.76933704e+07  2.78e-08 1.91e-10  1.94e-06     4s
  37   6.76933697e+07  6.76933698e+07  4.38e-07 1.77e-10  2.23e-07     4s
  38   6.76933697e+07  6.76933697e+07  1.82e-09 1.53e-10  1.12e-10     4s

Barrier solved model in 38 iterations and 4.21 seconds (5.97 work units)
Optimal objective 6.76933697e+07


Root simplex log...

Iteration    Objective       Primal Inf.    Dual Inf.      Time
   17519    6.7693370e+07   0.000000e+00   2.416385e+05      5s
   20797    6.7693370e+07   0.000000e+00   0.000000e+00      6s
Crossover time: 1.65 seconds (1.88 work units)
Concurrent spin time: 0.41s

Solved with barrier

Root relaxation: objective 6.769337e+07, 20797 iterations, 4.45 seconds (4.90 work units)

    Nodes    |    Current Node    |     Objective Bounds      |     Work
 Expl Unexpl |  Obj  Depth IntInf | Incumbent    BestBd   Gap | It/Node Time

     0     0 6.7693e+07    0 4096 -3.915e+08 6.7693e+07   117%     -    7s
H    0     0                    -2.40090e+08 6.7693e+07   128%     -    8s
H    0     0                    -1.50807e+08 6.7693e+07   145%     -    9s
H    0     0                    -1.01661e+08 6.7693e+07   167%     -   11s
H    0     0                    -8.71153e+07 6.7693e+07   178%     -   15s
H    0     0                    -8.05772e+07 6.7693e+07   184%     -   16s
H    0     0                    -3.12935e+07 6.7693e+07   316%     -   17s
H    0     0                    4.791522e+07 6.7693e+07  41.3%     -   18s
H    0     0                    4.806141e+07 6.7693e+07  40.8%     -   18s
     0     0 6.7693e+07    0 4112 4.8061e+07 6.7693e+07  40.8%     -   28s
H    0     0                    4.810836e+07 6.7693e+07  40.7%     -   36s
H    0     0                    4.812678e+07 6.7693e+07  40.7%     -   47s
H    0     0                    5.759365e+07 6.7693e+07  17.5%     -   47s
     0     0 6.7693e+07    0 4110 5.7594e+07 6.7693e+07  17.5%     -   56s
     0     0 6.7693e+07    0 4185 5.7594e+07 6.7693e+07  17.5%     -   63s
     0     0 6.7693e+07    0 4091 5.7594e+07 6.7693e+07  17.5%     -   64s
     0     0 6.7693e+07    0 4303 5.7594e+07 6.7693e+07  17.5%     -   71s
     0     0 6.7693e+07    0 4417 5.7594e+07 6.7693e+07  17.5%     -   72s
     0     0 6.7693e+07    0 5532 5.7594e+07 6.7693e+07  17.5%     -   88s
     0     0 6.7693e+07    0 5479 5.7594e+07 6.7693e+07  17.5%     -   92s
     0     0 6.7693e+07    0 6486 5.7594e+07 6.7693e+07  17.5%     -  105s
     0     0 6.7693e+07    0 6717 5.7594e+07 6.7693e+07  17.5%     -  110s
     0     0 6.7692e+07    0 7342 5.7594e+07 6.7692e+07  17.5%     -  122s
     0     0 6.7692e+07    0 7342 5.7594e+07 6.7692e+07  17.5%     -  124s
     0     0 6.7692e+07    0 5675 5.7594e+07 6.7692e+07  17.5%     -  130s
H    0     0                    5.841070e+07 6.7692e+07  15.9%     -  172s
H    0     0                    5.848256e+07 6.7692e+07  15.7%     -  176s
H    0     0                    5.848420e+07 6.7692e+07  15.7%     -  177s
H    0     0                    5.848467e+07 6.7692e+07  15.7%     -  177s
H    0     0                    5.848493e+07 6.7692e+07  15.7%     -  179s
H    0     0                    5.848497e+07 6.7692e+07  15.7%     -  179s
     0     2 6.7692e+07    0 5344 5.8485e+07 6.7692e+07  15.7%     -  183s
     1     4 6.7692e+07    1 6422 5.8485e+07 6.7692e+07  15.7%  1947  191s
     3     8 6.7692e+07    2 6603 5.8485e+07 6.7692e+07  15.7%  2869  199s
     7    16 6.7692e+07    3 6520 5.8485e+07 6.7692e+07  15.7%  2706  212s
    15    31 6.7692e+07    4 6025 5.8485e+07 6.7692e+07  15.7%  3027  253s
H   16    31                    5.848688e+07 6.7692e+07  15.7%  2838  253s
H   19    31                    5.849226e+07 6.7692e+07  15.7%  2784  253s
    30    51 6.7692e+07    5 5666 5.8492e+07 6.7692e+07  15.7%  3612  294s
H   32    51                    5.849252e+07 6.7692e+07  15.7%  3512  294s
H   33    51                    5.849254e+07 6.7692e+07  15.7%  3426  294s
H   35    51                    5.849371e+07 6.7692e+07  15.7%  3284  294s
H   43    51                    5.852198e+07 6.7692e+07  15.7%  2970  294s
H   50    71                    5.869410e+07 6.7692e+07  15.3%  3064  362s
H   51    71                    5.880120e+07 6.7692e+07  15.1%  3026  362s
H   52    71                    5.880363e+07 6.7692e+07  15.1%  3069  362s
H   54    71                    5.882522e+07 6.7692e+07  15.1%  2995  362s
H   56    71                    5.890586e+07 6.7692e+07  14.9%  2951  362s
H   65    71                    5.891887e+07 6.7692e+07  14.9%  2695  362s
    70    91 6.7692e+07    7 5456 5.8919e+07 6.7692e+07  14.9%  2660  449s
    90   111 6.7692e+07    8 5311 5.8919e+07 6.7692e+07  14.9%  2416  582s
H  104   111                    5.892022e+07 6.7692e+07  14.9%  2532  582s
   110   384 6.7691e+07    8 5358 5.8920e+07 6.7692e+07  14.9%  2593 1004s
H  383   404                    6.325158e+07 6.7692e+07  7.02%  2364 1389s
   403  1121 6.7692e+07   14 4280 6.3252e+07 6.7692e+07  7.02%  2328 2268s
  1120  2279 6.7692e+07   45 4029 6.3252e+07 6.7692e+07  7.02%  1996 3600s
H 1375  2279                    6.329047e+07 6.7692e+07  6.96%  1858 3600s
H 1425  2279                    6.336792e+07 6.7692e+07  6.82%  1859 3600s
H 1834  2279                    6.344681e+07 6.7692e+07  6.69%  1969 3600s

Cutting planes:
  Gomory: 2
  MIR: 38
  Flow cover: 134
  Zero half: 3
  RLT: 3813

Explored 2278 nodes (4382816 simplex iterations) in 3600.14 seconds (2500.49 work units)
Thread count was 20 (of 20 available processors)

Solution count 10: 6.34468e+07 6.33679e+07 6.32905e+07 ... 5.88012e+07

Time limit reached
Best objective 6.344681352150e+07, best bound 6.769247278851e+07, gap 6.6917%
